Maximize
F - f1 - f2

Subject to
F - 2y34 - 6y59 - 4y88 - 2y118 - 8y208 - 2y221 - 4y226 - 6y243 - 8y246 - 2y268 - 6y271 - 2y177 - 6y74 - 6y184 - 6y93 - 6y135 - 2y75 - 4y85 - 2y171 - 2y21 - 6y86 - 4y154 - 6y58 = 0
f1 - 0.006218s34 - 0.006218s59 - 0.006218s88 - 0.006218s118 - 0.006218s208 - 0.006218s221 - 0.006218s226 - 0.006218s243 - 0.006218s246 - 0.006218s268 - 0.006218s271 - 0.006218s177 - 0.006218s74 - 0.006218s184 - 0.006218s93 - 0.006218s135 - 0.006218s75 - 0.006218s85 - 0.006218s171 - 0.006218s21 - 0.006218s86 - 0.006218s154 - 0.006218s58  = 0
f2 - 3.08y34 - 3.01y59 - 2.65y88 - 2.11y118 - 3.01y208 - 2.42y221 - 2.09y226 - 1.85y243 - 2.61y246 - 3.25y268 - 2.52y271 - 1.60y177 - 2.08y74 - 2.25y184 - 1.44y93 - 1.54y135 - 1.27y75 - 1.31y85 - 0.98y171 - 0.78y21 - 0.77y86 - 1.13y154 - 0.47y58 = 0

x19x118x1 + x19x243x1 + x19x177x1 + x19x74x1 + x19x184x1 + x19x171x1 + x19x21x1 + x19x154x1 + x19x58x1 
<= 2
x250x118x1 + x250x243x1 + x250x177x1 + x250x74x1 + x250x184x1 + x250x171x1 + x250x21x1 + x250x154x1 + x250x58x1 
<= 1
x223x177x1 + x223x74x1 + x223x184x1 + x223x171x1 + x223x21x1 + x223x154x1 + x223x58x1 
<= 1
x210x171x1 + x210x21x1 + x210x154x1 + x210x58x1 
<= 1
x3x171x1 + x3x21x1 + x3x154x1 + x3x58x1 
<= 1
x173x171x1 + x173x21x1 + x173x154x1 + x173x58x1 
<= 1
x212x59x1 + x212x118x1 + x212x243x1 + x212x268x1 + x212x177x1 + x212x74x1 + x212x184x1 + x212x171x1 + x212x21x1 + x212x154x1 + x212x58x1 
<= 1
x108x118x1 + x108x243x1 + x108x177x1 + x108x74x1 + x108x184x1 + x108x171x1 + x108x21x1 + x108x154x1 + x108x58x1 
<= 1
x250x88x2 + x250x118x2 + x250x221x2 + x250x226x2 + x250x246x2 + x250x271x2 + x250x93x2 + x250x75x2 + x250x85x2 + x250x86x2 + x250x154x2 
<= 1
x223x88x2 + x223x93x2 + x223x75x2 + x223x85x2 + x223x86x2 + x223x154x2 
<= 1
x76x93x2 + x76x75x2 + x76x85x2 + x76x86x2 + x76x154x2 
<= 1
x134x93x2 + x134x75x2 + x134x85x2 + x134x86x2 + x134x154x2 
<= 1
x37x88x2 + x37x118x2 + x37x221x2 + x37x226x2 + x37x246x2 + x37x271x2 + x37x93x2 + x37x75x2 + x37x85x2 + x37x86x2 + x37x154x2 
<= 1
x257x88x2 + x257x118x2 + x257x221x2 + x257x226x2 + x257x246x2 + x257x271x2 + x257x93x2 + x257x75x2 + x257x85x2 + x257x86x2 + x257x154x2 
<= 2
x136x88x2 + x136x118x2 + x136x221x2 + x136x226x2 + x136x246x2 + x136x93x2 + x136x75x2 + x136x85x2 + x136x86x2 + x136x154x2 
<= 1
x62x88x2 + x62x118x2 + x62x208x2 + x62x221x2 + x62x226x2 + x62x246x2 + x62x271x2 + x62x93x2 + x62x75x2 + x62x85x2 + x62x86x2 + x62x154x2 
<= 1

x76x93x3 + x76x85x3 + x76x171x3 + x76x21x3 
<= 1
x210x93x3 + x210x135x3 + x210x85x3 + x210x171x3 + x210x21x3 
<= 1
x3x171x3 + x3x21x3 
<= 1
x197x88x3 + x197x221x3 + x197x243x3 + x197x246x3 + x197x177x3 + x197x74x3 + x197x93x3 + x197x135x3 + x197x85x3 + x197x171x3 + x197x21x3 
<= 2
x173x85x3 + x173x171x3 + x173x21x3 
<= 1
x134x93x3 + x134x85x3 + x134x171x3 + x134x21x3 
<= 1
x136x88x3 + x136x221x3 + x136x243x3 + x136x246x3 + x136x177x3 + x136x74x3 + x136x93x3 + x136x135x3 + x136x85x3 + x136x171x3 + x136x21x3 
<= 1
x62x88x3 + x62x208x3 + x62x221x3 + x62x243x3 + x62x246x3 + x62x271x3 + x62x177x3 + x62x74x3 + x62x93x3 + x62x135x3 + x62x85x3 + x62x171x3 + x62x21x3 
<= 1



- x34x86x2 - x34x154x2 
= 0


x212x59x1 
- x59x0x1
- x59x171x1 - x59x21x1 - x59x154x1 - x59x58x1 
= 0




x250x88x2 + x223x88x2 + x37x88x2 + x257x88x2 + x136x88x2 + x62x88x2 
- x88x0x2
- x88x85x2 - x88x86x2 - x88x154x2 
= 0
x197x88x3 + x136x88x3 + x62x88x3 
- x88x0x3
- x88x85x3 - x88x171x3 - x88x21x3 
= 0

x19x118x1 + x250x118x1 + x212x118x1 + x108x118x1 
- x118x0x1
- x118x171x1 - x118x21x1 - x118x154x1 - x118x58x1 
= 0
x250x118x2 + x37x118x2 + x257x118x2 + x136x118x2 + x62x118x2 
- x118x0x2
- x118x93x2 - x118x75x2 - x118x85x2 - x118x86x2 - x118x154x2 
= 0



x62x208x2 
- x208x0x2
- x208x86x2 - x208x154x2 
= 0
x62x208x3 
- x208x0x3
- x208x171x3 - x208x21x3 
= 0


x250x221x2 + x37x221x2 + x257x221x2 + x136x221x2 + x62x221x2 
- x221x0x2
- x221x75x2 - x221x85x2 - x221x86x2 - x221x154x2 
= 0
x197x221x3 + x136x221x3 + x62x221x3 
- x221x0x3
- x221x85x3 - x221x171x3 - x221x21x3 
= 0


x250x226x2 + x37x226x2 + x257x226x2 + x136x226x2 + x62x226x2 
- x226x0x2
- x226x75x2 - x226x85x2 - x226x86x2 - x226x154x2 
= 0


x19x243x1 + x250x243x1 + x212x243x1 + x108x243x1 
- x243x0x1
- x243x171x1 - x243x21x1 - x243x154x1 - x243x58x1 
= 0

x197x243x3 + x136x243x3 + x62x243x3 
- x243x0x3
- x243x93x3 - x243x135x3 - x243x85x3 - x243x171x3 - x243x21x3 
= 0


x250x246x2 + x37x246x2 + x257x246x2 + x136x246x2 + x62x246x2 
- x246x0x2
- x246x85x2 - x246x86x2 - x246x154x2 
= 0
x197x246x3 + x136x246x3 + x62x246x3 
- x246x0x3
- x246x85x3 - x246x171x3 - x246x21x3 
= 0

x212x268x1 
- x268x0x1
- x268x171x1 - x268x21x1 - x268x154x1 - x268x58x1 
= 0




x250x271x2 + x37x271x2 + x257x271x2 + x62x271x2 
- x271x0x2
- x271x85x2 - x271x86x2 - x271x154x2 
= 0
x62x271x3 
- x271x0x3
- x271x85x3 - x271x171x3 - x271x21x3 
= 0

x19x177x1 + x250x177x1 + x223x177x1 + x212x177x1 + x108x177x1 
- x177x0x1
- x177x171x1 - x177x21x1 - x177x154x1 - x177x58x1 
= 0

x197x177x3 + x136x177x3 + x62x177x3 
- x177x0x3
- x177x93x3 - x177x135x3 - x177x85x3 - x177x171x3 - x177x21x3 
= 0

x19x74x1 + x250x74x1 + x223x74x1 + x212x74x1 + x108x74x1 
- x74x0x1
- x74x171x1 - x74x21x1 - x74x154x1 - x74x58x1 
= 0

x197x74x3 + x136x74x3 + x62x74x3 
- x74x0x3
- x74x135x3 - x74x85x3 - x74x171x3 - x74x21x3 
= 0

x19x184x1 + x250x184x1 + x223x184x1 + x212x184x1 + x108x184x1 
- x184x0x1
- x184x171x1 - x184x21x1 - x184x154x1 - x184x58x1 
= 0




x250x93x2 + x223x93x2 + x76x93x2 + x134x93x2 + x37x93x2 + x257x93x2 + x136x93x2 + x62x93x2 + x118x93x2 
- x93x0x2
- x93x75x2 - x93x85x2 - x93x86x2 - x93x154x2 
= 0
x76x93x3 + x210x93x3 + x197x93x3 + x134x93x3 + x136x93x3 + x62x93x3 + x243x93x3 + x177x93x3 
- x93x0x3
- x93x85x3 - x93x171x3 - x93x21x3 
= 0



x210x135x3 + x197x135x3 + x136x135x3 + x62x135x3 + x243x135x3 + x177x135x3 + x74x135x3 
- x135x0x3
- x135x85x3 - x135x171x3 - x135x21x3 
= 0


x250x75x2 + x223x75x2 + x76x75x2 + x134x75x2 + x37x75x2 + x257x75x2 + x136x75x2 + x62x75x2 + x118x75x2 + x221x75x2 + x226x75x2 + x93x75x2 
- x75x0x2
- x75x86x2 - x75x154x2 
= 0



x250x85x2 + x223x85x2 + x76x85x2 + x134x85x2 + x37x85x2 + x257x85x2 + x136x85x2 + x62x85x2 + x88x85x2 + x118x85x2 + x221x85x2 + x226x85x2 + x246x85x2 + x271x85x2 + x93x85x2 
- x85x0x2
- x85x86x2 - x85x154x2 
= 0
x76x85x3 + x210x85x3 + x197x85x3 + x173x85x3 + x134x85x3 + x136x85x3 + x62x85x3 + x88x85x3 + x221x85x3 + x243x85x3 + x246x85x3 + x271x85x3 + x177x85x3 + x74x85x3 + x93x85x3 + x135x85x3 
- x85x0x3
- x85x171x3 - x85x21x3 
= 0

x19x171x1 + x250x171x1 + x223x171x1 + x210x171x1 + x3x171x1 + x173x171x1 + x212x171x1 + x108x171x1 + x59x171x1 + x118x171x1 + x243x171x1 + x268x171x1 + x177x171x1 + x74x171x1 + x184x171x1 
- x171x0x1
- x171x21x1 - x171x154x1 - x171x58x1 
= 0

x76x171x3 + x210x171x3 + x3x171x3 + x197x171x3 + x173x171x3 + x134x171x3 + x136x171x3 + x62x171x3 + x88x171x3 + x208x171x3 + x221x171x3 + x243x171x3 + x246x171x3 + x271x171x3 + x177x171x3 + x74x171x3 + x93x171x3 + x135x171x3 + x85x171x3 
- x171x0x3
- x171x21x3 
= 0

x19x21x1 + x250x21x1 + x223x21x1 + x210x21x1 + x3x21x1 + x173x21x1 + x212x21x1 + x108x21x1 + x59x21x1 + x118x21x1 + x243x21x1 + x268x21x1 + x177x21x1 + x74x21x1 + x184x21x1 + x171x21x1 
- x21x0x1
- x21x58x1 
= 0

x76x21x3 + x210x21x3 + x3x21x3 + x197x21x3 + x173x21x3 + x134x21x3 + x136x21x3 + x62x21x3 + x88x21x3 + x208x21x3 + x221x21x3 + x243x21x3 + x246x21x3 + x271x21x3 + x177x21x3 + x74x21x3 + x93x21x3 + x135x21x3 + x85x21x3 + x171x21x3 
- x21x0x3

= 0


x250x86x2 + x223x86x2 + x76x86x2 + x134x86x2 + x37x86x2 + x257x86x2 + x136x86x2 + x62x86x2 + x34x86x2 + x88x86x2 + x118x86x2 + x208x86x2 + x221x86x2 + x226x86x2 + x246x86x2 + x271x86x2 + x93x86x2 + x75x86x2 + x85x86x2 
- x86x0x2

= 0


x19x154x1 + x250x154x1 + x223x154x1 + x210x154x1 + x3x154x1 + x173x154x1 + x212x154x1 + x108x154x1 + x59x154x1 + x118x154x1 + x243x154x1 + x268x154x1 + x177x154x1 + x74x154x1 + x184x154x1 + x171x154x1 
- x154x0x1

= 0
x250x154x2 + x223x154x2 + x76x154x2 + x134x154x2 + x37x154x2 + x257x154x2 + x136x154x2 + x62x154x2 + x34x154x2 + x88x154x2 + x118x154x2 + x208x154x2 + x221x154x2 + x226x154x2 + x246x154x2 + x271x154x2 + x93x154x2 + x75x154x2 + x85x154x2 
- x154x0x2

= 0


x19x58x1 + x250x58x1 + x223x58x1 + x210x58x1 + x3x58x1 + x173x58x1 + x212x58x1 + x108x58x1 + x59x58x1 + x118x58x1 + x243x58x1 + x268x58x1 + x177x58x1 + x74x58x1 + x184x58x1 + x171x58x1 + x21x58x1 
- x58x0x1

= 0



2y34 = 0
2y59 - x212x59x1 = 0
1y88 - x250x88x2 - x223x88x2 - x37x88x2 - x257x88x2 - x136x88x2 - x62x88x2 = 0
1y88 - x197x88x3 - x136x88x3 - x62x88x3 = 0
1y118 - x19x118x1 - x250x118x1 - x212x118x1 - x108x118x1 = 0
1y118 - x250x118x2 - x37x118x2 - x257x118x2 - x136x118x2 - x62x118x2 = 0
1y208 - x62x208x2 = 0
1y208 - x62x208x3 = 0
1y221 - x250x221x2 - x37x221x2 - x257x221x2 - x136x221x2 - x62x221x2 = 0
1y221 - x197x221x3 - x136x221x3 - x62x221x3 = 0
2y226 - x250x226x2 - x37x226x2 - x257x226x2 - x136x226x2 - x62x226x2 = 0
1y243 - x19x243x1 - x250x243x1 - x212x243x1 - x108x243x1 = 0
1y243 - x197x243x3 - x136x243x3 - x62x243x3 = 0
1y246 - x250x246x2 - x37x246x2 - x257x246x2 - x136x246x2 - x62x246x2 = 0
1y246 - x197x246x3 - x136x246x3 - x62x246x3 = 0
2y268 - x212x268x1 = 0
1y271 - x250x271x2 - x37x271x2 - x257x271x2 - x62x271x2 = 0
1y271 - x62x271x3 = 0
1y177 - x19x177x1 - x250x177x1 - x223x177x1 - x212x177x1 - x108x177x1 = 0
1y177 - x197x177x3 - x136x177x3 - x62x177x3 = 0
1y74 - x19x74x1 - x250x74x1 - x223x74x1 - x212x74x1 - x108x74x1 = 0
1y74 - x197x74x3 - x136x74x3 - x62x74x3 = 0
2y184 - x19x184x1 - x250x184x1 - x223x184x1 - x212x184x1 - x108x184x1 = 0
1y93 - x250x93x2 - x223x93x2 - x76x93x2 - x134x93x2 - x37x93x2 - x257x93x2 - x136x93x2 - x62x93x2 - x118x93x2 = 0
1y93 - x76x93x3 - x210x93x3 - x197x93x3 - x134x93x3 - x136x93x3 - x62x93x3 - x243x93x3 - x177x93x3 = 0
2y135 - x210x135x3 - x197x135x3 - x136x135x3 - x62x135x3 - x243x135x3 - x177x135x3 - x74x135x3 = 0
2y75 - x250x75x2 - x223x75x2 - x76x75x2 - x134x75x2 - x37x75x2 - x257x75x2 - x136x75x2 - x62x75x2 - x118x75x2 - x221x75x2 - x226x75x2 - x93x75x2 = 0
1y85 - x250x85x2 - x223x85x2 - x76x85x2 - x134x85x2 - x37x85x2 - x257x85x2 - x136x85x2 - x62x85x2 - x88x85x2 - x118x85x2 - x221x85x2 - x226x85x2 - x246x85x2 - x271x85x2 - x93x85x2 = 0
1y85 - x76x85x3 - x210x85x3 - x197x85x3 - x173x85x3 - x134x85x3 - x136x85x3 - x62x85x3 - x88x85x3 - x221x85x3 - x243x85x3 - x246x85x3 - x271x85x3 - x177x85x3 - x74x85x3 - x93x85x3 - x135x85x3 = 0
1y171 - x19x171x1 - x250x171x1 - x223x171x1 - x210x171x1 - x3x171x1 - x173x171x1 - x212x171x1 - x108x171x1 - x59x171x1 - x118x171x1 - x243x171x1 - x268x171x1 - x177x171x1 - x74x171x1 - x184x171x1 = 0
1y171 - x76x171x3 - x210x171x3 - x3x171x3 - x197x171x3 - x173x171x3 - x134x171x3 - x136x171x3 - x62x171x3 - x88x171x3 - x208x171x3 - x221x171x3 - x243x171x3 - x246x171x3 - x271x171x3 - x177x171x3 - x74x171x3 - x93x171x3 - x135x171x3 - x85x171x3 = 0
1y21 - x19x21x1 - x250x21x1 - x223x21x1 - x210x21x1 - x3x21x1 - x173x21x1 - x212x21x1 - x108x21x1 - x59x21x1 - x118x21x1 - x243x21x1 - x268x21x1 - x177x21x1 - x74x21x1 - x184x21x1 - x171x21x1 = 0
1y21 - x76x21x3 - x210x21x3 - x3x21x3 - x197x21x3 - x173x21x3 - x134x21x3 - x136x21x3 - x62x21x3 - x88x21x3 - x208x21x3 - x221x21x3 - x243x21x3 - x246x21x3 - x271x21x3 - x177x21x3 - x74x21x3 - x93x21x3 - x135x21x3 - x85x21x3 - x171x21x3 = 0
2y86 - x250x86x2 - x223x86x2 - x76x86x2 - x134x86x2 - x37x86x2 - x257x86x2 - x136x86x2 - x62x86x2 - x34x86x2 - x88x86x2 - x118x86x2 - x208x86x2 - x221x86x2 - x226x86x2 - x246x86x2 - x271x86x2 - x93x86x2 - x75x86x2 - x85x86x2 = 0
1y154 - x19x154x1 - x250x154x1 - x223x154x1 - x210x154x1 - x3x154x1 - x173x154x1 - x212x154x1 - x108x154x1 - x59x154x1 - x118x154x1 - x243x154x1 - x268x154x1 - x177x154x1 - x74x154x1 - x184x154x1 - x171x154x1 = 0
1y154 - x250x154x2 - x223x154x2 - x76x154x2 - x134x154x2 - x37x154x2 - x257x154x2 - x136x154x2 - x62x154x2 - x34x154x2 - x88x154x2 - x118x154x2 - x208x154x2 - x221x154x2 - x226x154x2 - x246x154x2 - x271x154x2 - x93x154x2 - x75x154x2 - x85x154x2 = 0
2y58 - x19x58x1 - x250x58x1 - x223x58x1 - x210x58x1 - x3x58x1 - x173x58x1 - x212x58x1 - x108x58x1 - x59x58x1 - x118x58x1 - x243x58x1 - x268x58x1 - x177x58x1 - x74x58x1 - x184x58x1 - x171x58x1 - x21x58x1 = 0

s19 - s118 + 6.549764z19z118z1 <= 5.11
s19 - s243 + 6.596387z19z243z1 <= 5.11
s19 - s177 + 6.616370z19z177z1 <= 5.11
s19 - s74 + 6.614042z19z74z1 <= 5.11
s19 - s184 + 6.599298z19z184z1 <= 5.11
s19 - s171 + 6.711675z19z171z1 <= 5.11
s19 - s21 + 6.704437z19z21z1 <= 5.11
s19 - s154 + 6.814118z19z154z1 <= 5.11
s19 - s58 + 6.757932z19z58z1 <= 5.11
s250 - s88 + 6.661250z250z88z2 <= 5.20
s250 - s118 + 6.549712z250z118z1 <= 5.20
s250 - s118 + 6.549712z250z118z2 <= 5.20
s250 - s221 + 6.541607z250z221z2 <= 5.20
s250 - s226 + 6.421552z250z226z2 <= 5.20
s250 - s243 + 6.574867z250z243z1 <= 5.20
s250 - s246 + 6.633849z250z246z2 <= 5.20
s250 - s271 + 6.543217z250z271z2 <= 5.20
s250 - s177 + 6.556212z250z177z1 <= 5.20
s250 - s74 + 6.651420z250z74z1 <= 5.20
s250 - s184 + 6.659570z250z184z1 <= 5.20
s250 - s93 + 6.523026z250z93z2 <= 5.20
s250 - s75 + 6.575632z250z75z2 <= 5.20
s250 - s85 + 6.640670z250z85z2 <= 5.20
s250 - s171 + 6.604334z250z171z1 <= 5.20
s250 - s21 + 6.546288z250z21z1 <= 5.20
s250 - s86 + 6.777488z250z86z2 <= 5.20
s250 - s154 + 6.791493z250z154z1 <= 5.20
s250 - s154 + 6.791493z250z154z2 <= 5.20
s250 - s58 + 6.592361z250z58z1 <= 5.20
s223 - s88 + 6.939677z223z88z2 <= 5.62
s223 - s177 + 7.006192z223z177z1 <= 5.62
s223 - s74 + 7.000723z223z74z1 <= 5.62
s223 - s184 + 6.986545z223z184z1 <= 5.62
s223 - s93 + 7.013722z223z93z2 <= 5.62
s223 - s75 + 7.054930z223z75z2 <= 5.62
s223 - s85 + 7.084129z223z85z2 <= 5.62
s223 - s171 + 7.103032z223z171z1 <= 5.62
s223 - s21 + 7.102345z223z21z1 <= 5.62
s223 - s86 + 7.225921z223z86z2 <= 5.62
s223 - s154 + 7.200634z223z154z1 <= 5.62
s223 - s154 + 7.200634z223z154z2 <= 5.62
s223 - s58 + 7.155153z223z58z1 <= 5.62
s76 - s93 + 7.056263z76z93z2 <= 5.76
s76 - s93 + 7.056263z76z93z3 <= 5.76
s76 - s75 + 7.098877z76z75z2 <= 5.76
s76 - s85 + 7.167408z76z85z2 <= 5.76
s76 - s85 + 7.167408z76z85z3 <= 5.76
s76 - s171 + 7.110257z76z171z3 <= 5.76
s76 - s21 + 7.033816z76z21z3 <= 5.76
s76 - s86 + 7.281670z76z86z2 <= 5.76
s76 - s154 + 7.312316z76z154z2 <= 5.76
s210 - s93 + 6.988097z210z93z3 <= 5.84
s210 - s135 + 7.095439z210z135z3 <= 5.84
s210 - s85 + 7.100188z210z85z3 <= 5.84
s210 - s171 + 7.080367z210z171z1 <= 5.84
s210 - s171 + 7.080367z210z171z3 <= 5.84
s210 - s21 + 7.049219z210z21z1 <= 5.84
s210 - s21 + 7.049219z210z21z3 <= 5.84
s210 - s154 + 7.249168z210z154z1 <= 5.84
s210 - s58 + 7.102781z210z58z1 <= 5.84
s3 - s171 + 7.366325z3z171z1 <= 5.96
s3 - s171 + 7.366325z3z171z3 <= 5.96
s3 - s21 + 7.287216z3z21z1 <= 5.96
s3 - s21 + 7.287216z3z21z3 <= 5.96
s3 - s154 + 7.569050z3z154z1 <= 5.96
s3 - s58 + 7.313541z3z58z1 <= 5.96
s197 - s88 + 6.676048z197z88z3 <= 5.38
s197 - s221 + 6.563424z197z221z3 <= 5.38
s197 - s243 + 6.543436z197z243z3 <= 5.38
s197 - s246 + 6.650719z197z246z3 <= 5.38
s197 - s177 + 6.511318z197z177z3 <= 5.38
s197 - s74 + 6.629889z197z74z3 <= 5.38
s197 - s93 + 6.470676z197z93z3 <= 5.38
s197 - s135 + 6.594994z197z135z3 <= 5.38
s197 - s85 + 6.588274z197z85z3 <= 5.38
s197 - s171 + 6.550359z197z171z3 <= 5.38
s197 - s21 + 6.506842z197z21z3 <= 5.38
s173 - s85 + 7.206577z173z85z3 <= 5.83
s173 - s171 + 7.134167z173z171z1 <= 5.83
s173 - s171 + 7.134167z173z171z3 <= 5.83
s173 - s21 + 7.053108z173z21z1 <= 5.83
s173 - s21 + 7.053108z173z21z3 <= 5.83
s173 - s154 + 7.327586z173z154z1 <= 5.83
s173 - s58 + 7.054378z173z58z1 <= 5.83
s134 - s93 + 7.048487z134z93z2 <= 5.84
s134 - s93 + 7.048487z134z93z3 <= 5.84
s134 - s75 + 7.090192z134z75z2 <= 5.84
s134 - s85 + 7.158708z134z85z2 <= 5.84
s134 - s85 + 7.158708z134z85z3 <= 5.84
s134 - s171 + 7.102402z134z171z3 <= 5.84
s134 - s21 + 7.028243z134z21z3 <= 5.84
s134 - s86 + 7.275010z134z86z2 <= 5.84
s134 - s154 + 7.303961z134z154z2 <= 5.84
s212 - s59 + 6.023134z212z59z1 <= 4.45
s212 - s118 + 6.029147z212z118z1 <= 4.45
s212 - s243 + 6.046970z212z243z1 <= 4.45
s212 - s268 + 6.047569z212z268z1 <= 4.45
s212 - s177 + 6.019967z212z177z1 <= 4.45
s212 - s74 + 6.129235z212z74z1 <= 4.45
s212 - s184 + 6.140775z212z184z1 <= 4.45
s212 - s171 + 6.042687z212z171z1 <= 4.45
s212 - s21 + 5.968189z212z21z1 <= 4.45
s212 - s154 + 6.243040z212z154z1 <= 4.45
s212 - s58 + 6.000211z212z58z1 <= 4.45
s37 - s88 + 6.478849z37z88z2 <= 4.80
s37 - s118 + 6.355797z37z118z2 <= 4.80
s37 - s221 + 6.357271z37z221z2 <= 4.80
s37 - s226 + 6.230721z37z226z2 <= 4.80
s37 - s246 + 6.451395z37z246z2 <= 4.80
s37 - s271 + 6.361277z37z271z2 <= 4.80
s37 - s93 + 6.299869z37z93z2 <= 4.80
s37 - s75 + 6.345566z37z75z2 <= 4.80
s37 - s85 + 6.414195z37z85z2 <= 4.80
s37 - s86 + 6.531040z37z86z2 <= 4.80
s37 - s154 + 6.560849z37z154z2 <= 4.80
s108 - s118 + 6.361011z108z118z1 <= 4.74
s108 - s243 + 6.371734z108z243z1 <= 4.74
s108 - s177 + 6.339210z108z177z1 <= 4.74
s108 - s74 + 6.457262z108z74z1 <= 4.74
s108 - s184 + 6.472217z108z184z1 <= 4.74
s108 - s171 + 6.344955z108z171z1 <= 4.74
s108 - s21 + 6.265190z108z21z1 <= 4.74
s108 - s154 + 6.547712z108z154z1 <= 4.74
s108 - s58 + 6.288198z108z58z1 <= 4.74
s257 - s88 + 6.508224z257z88z2 <= 4.97
s257 - s118 + 6.521554z257z118z2 <= 4.97
s257 - s221 + 6.474727z257z221z2 <= 4.97
s257 - s226 + 6.477395z257z226z2 <= 4.97
s257 - s246 + 6.496370z257z246z2 <= 4.97
s257 - s271 + 6.461438z257z271z2 <= 4.97
s257 - s93 + 6.596073z257z93z2 <= 4.97
s257 - s75 + 6.638748z257z75z2 <= 4.97
s257 - s85 + 6.668187z257z85z2 <= 4.97
s257 - s86 + 6.808721z257z86z2 <= 4.97
s257 - s154 + 6.780108z257z154z2 <= 4.97
s136 - s88 + 6.726552z136z88z2 <= 4.86
s136 - s88 + 6.726552z136z88z3 <= 4.86
s136 - s118 + 6.595957z136z118z2 <= 4.86
s136 - s221 + 6.605650z136z221z2 <= 4.86
s136 - s221 + 6.605650z136z221z3 <= 4.86
s136 - s226 + 6.478559z136z226z2 <= 4.86
s136 - s243 + 6.602524z136z243z3 <= 4.86
s136 - s246 + 6.699539z136z246z2 <= 4.86
s136 - s246 + 6.699539z136z246z3 <= 4.86
s136 - s177 + 6.567056z136z177z3 <= 4.86
s136 - s74 + 6.689090z136z74z3 <= 4.86
s136 - s93 + 6.521491z136z93z2 <= 4.86
s136 - s93 + 6.521491z136z93z3 <= 4.86
s136 - s135 + 6.644330z136z135z3 <= 4.86
s136 - s75 + 6.559034z136z75z2 <= 4.86
s136 - s85 + 6.626098z136z85z2 <= 4.86
s136 - s85 + 6.626098z136z85z3 <= 4.86
s136 - s171 + 6.560921z136z171z3 <= 4.86
s136 - s21 + 6.478994z136z21z3 <= 4.86
s136 - s86 + 6.720756z136z86z2 <= 4.86
s136 - s154 + 6.762427z136z154z2 <= 4.86
s62 - s88 + 6.436021z62z88z2 <= 4.98
s62 - s88 + 6.436021z62z88z3 <= 4.98
s62 - s118 + 6.430114z62z118z2 <= 4.98
s62 - s208 + 6.305045z62z208z2 <= 4.98
s62 - s208 + 6.305045z62z208z3 <= 4.98
s62 - s221 + 6.385200z62z221z2 <= 4.98
s62 - s221 + 6.385200z62z221z3 <= 4.98
s62 - s226 + 6.375219z62z226z2 <= 4.98
s62 - s243 + 6.476612z62z243z3 <= 4.98
s62 - s246 + 6.420243z62z246z2 <= 4.98
s62 - s246 + 6.420243z62z246z3 <= 4.98
s62 - s271 + 6.372954z62z271z2 <= 4.98
s62 - s271 + 6.372954z62z271z3 <= 4.98
s62 - s177 + 6.494993z62z177z3 <= 4.98
s62 - s74 + 6.497455z62z74z3 <= 4.98
s62 - s93 + 6.497110z62z93z2 <= 4.98
s62 - s93 + 6.497110z62z93z3 <= 4.98
s62 - s135 + 6.552235z62z135z3 <= 4.98
s62 - s75 + 6.542017z62z75z2 <= 4.98
s62 - s85 + 6.576340z62z85z2 <= 4.98
s62 - s85 + 6.576340z62z85z3 <= 4.98
s62 - s171 + 6.589242z62z171z3 <= 4.98
s62 - s21 + 6.579173z62z21z3 <= 4.98
s62 - s86 + 6.720097z62z86z2 <= 4.98
s62 - s154 + 6.696860z62z154z2 <= 4.98
s34 - s86 + 7.693781z34z86z2 <= 6.21
s34 - s154 + 7.678188z34z154z2 <= 6.21
s59 - s171 + 7.636228z59z171z1 <= 6.32
s59 - s21 + 7.652866z59z21z1 <= 6.32
s59 - s154 + 7.721387z59z154z1 <= 6.32
s59 - s58 + 7.702042z59z58z1 <= 6.32
s88 - s85 + 8.218683z88z85z2 <= 7.00
s88 - s85 + 8.218683z88z85z3 <= 7.00
s88 - s171 + 8.278488z88z171z3 <= 7.00
s88 - s21 + 8.331595z88z21z3 <= 7.00
s88 - s86 + 8.325098z88z86z2 <= 7.00
s88 - s154 + 8.281267z88z154z2 <= 7.00
s118 - s93 + 7.869342z118z93z2 <= 6.76
s118 - s75 + 7.888236z118z75z2 <= 6.76
s118 - s85 + 7.906667z118z85z2 <= 6.76
s118 - s171 + 7.936005z118z171z1 <= 6.76
s118 - s21 + 7.967632z118z21z1 <= 6.76
s118 - s86 + 8.050441z118z86z2 <= 6.76
s118 - s154 + 8.034874z118z154z1 <= 6.76
s118 - s154 + 8.034874z118z154z2 <= 6.76
s118 - s58 + 8.010954z118z58z1 <= 6.76
s208 - s171 + 7.674466z208z171z3 <= 6.36
s208 - s21 + 7.694797z208z21z3 <= 6.36
s208 - s86 + 7.780053z208z86z2 <= 6.36
s208 - s154 + 7.752372z208z154z2 <= 6.36
s221 - s75 + 7.786005z221z75z2 <= 6.61
s221 - s85 + 7.803793z221z85z2 <= 6.61
s221 - s85 + 7.803793z221z85z3 <= 6.61
s221 - s171 + 7.834103z221z171z3 <= 6.61
s221 - s21 + 7.860245z221z21z3 <= 6.61
s221 - s86 + 7.944996z221z86z2 <= 6.61
s221 - s154 + 7.924183z221z154z2 <= 6.61
s226 - s75 + 7.981353z226z75z2 <= 6.80
s226 - s85 + 8.035703z226z85z2 <= 6.80
s226 - s86 + 8.181808z226z86z2 <= 6.80
s226 - s154 + 8.182855z226z154z2 <= 6.80
s243 - s93 + 7.998944z243z93z3 <= 6.91
s243 - s135 + 7.988031z243z135z3 <= 6.91
s243 - s85 + 8.010000z243z85z3 <= 6.91
s243 - s171 + 8.044990z243z171z1 <= 6.91
s243 - s171 + 8.044990z243z171z3 <= 6.91
s243 - s21 + 8.089505z243z21z1 <= 6.91
s243 - s21 + 8.089505z243z21z3 <= 6.91
s243 - s154 + 8.142570z243z154z1 <= 6.91
s243 - s58 + 8.127050z243z58z1 <= 6.91
s246 - s85 + 8.069231z246z85z2 <= 6.86
s246 - s85 + 8.069231z246z85z3 <= 6.86
s246 - s171 + 8.124155z246z171z3 <= 6.86
s246 - s21 + 8.172482z246z21z3 <= 6.86
s246 - s86 + 8.185576z246z86z2 <= 6.86
s246 - s154 + 8.146667z246z154z2 <= 6.86
s268 - s171 + 7.620365z268z171z1 <= 6.27
s268 - s21 + 7.639805z268z21z1 <= 6.27
s268 - s154 + 7.693373z268z154z1 <= 6.27
s268 - s58 + 7.688463z268z58z1 <= 6.27
s271 - s85 + 7.777632z271z85z2 <= 6.57
s271 - s85 + 7.777632z271z85z3 <= 6.57
s271 - s171 + 7.808980z271z171z3 <= 6.57
s271 - s21 + 7.834660z271z21z3 <= 6.57
s271 - s86 + 7.917691z271z86z2 <= 6.57
s271 - s154 + 7.895099z271z154z2 <= 6.57
s177 - s93 + 8.056667z177z93z3 <= 7.01
s177 - s135 + 8.095375z177z135z3 <= 7.01
s177 - s85 + 8.099443z177z85z3 <= 7.01
s177 - s171 + 8.109107z177z171z1 <= 7.01
s177 - s171 + 8.109107z177z171z3 <= 7.01
s177 - s21 + 8.144990z177z21z1 <= 7.01
s177 - s21 + 8.144990z177z21z3 <= 7.01
s177 - s154 + 8.247394z177z154z1 <= 7.01
s177 - s58 + 8.184484z177z58z1 <= 7.01
s74 - s135 + 8.159691z74z135z3 <= 7.07
s74 - s85 + 8.197367z74z85z3 <= 7.07
s74 - s171 + 8.262297z74z171z1 <= 7.07
s74 - s171 + 8.262297z74z171z3 <= 7.07
s74 - s21 + 8.325169z74z21z1 <= 7.07
s74 - s21 + 8.325169z74z21z3 <= 7.07
s74 - s154 + 8.270998z74z154z1 <= 7.07
s74 - s58 + 8.353627z74z58z1 <= 7.07
s184 - s171 + 8.290101z184z171z1 <= 7.07
s184 - s21 + 8.351030z184z21z1 <= 7.07
s184 - s154 + 8.290000z184z154z1 <= 7.07
s184 - s58 + 8.380984z184z58z1 <= 7.07
s93 - s75 + 8.163749z93z75z2 <= 7.11
s93 - s85 + 8.227945z93z85z2 <= 7.11
s93 - s85 + 8.227945z93z85z3 <= 7.11
s93 - s171 + 8.204281z93z171z3 <= 7.11
s93 - s21 + 8.209107z93z21z3 <= 7.11
s93 - s86 + 8.367250z93z86z2 <= 7.11
s93 - s154 + 8.378742z93z154z2 <= 7.11
s135 - s85 + 8.197712z135z85z3 <= 7.16
s135 - s171 + 8.267703z135z171z3 <= 7.16
s135 - s21 + 8.341107z135z21z3 <= 7.16
s75 - s86 + 8.393524z75z86z2 <= 7.19
s75 - s154 + 8.407664z75z154z2 <= 7.19
s85 - s171 + 8.314535z85z171z3 <= 7.24
s85 - s21 + 8.393478z85z21z3 <= 7.24
s85 - s86 + 8.387573z85z86z2 <= 7.24
s85 - s154 + 8.390849z85z154z2 <= 7.24
s171 - s21 + 8.452462z171z21z1 <= 7.37
s171 - s21 + 8.452462z171z21z3 <= 7.37
s171 - s154 + 8.572759z171z154z1 <= 7.37
s171 - s58 + 8.462856z171z58z1 <= 7.37
s21 - s58 + 8.673748z21z58z1 <= 7.62

x19x118x1 - 1z19z118z1 <= 0
x19x243x1 - 1z19z243z1 <= 0
x19x177x1 - 1z19z177z1 <= 0
x19x74x1 - 1z19z74z1 <= 0
x19x184x1 - 2z19z184z1 <= 0
x19x171x1 - 1z19z171z1 <= 0
x19x21x1 - 1z19z21z1 <= 0
x19x154x1 - 1z19z154z1 <= 0
x19x58x1 - 2z19z58z1 <= 0
x250x88x2 - 1z250z88z2 <= 0
x250x118x1 - 1z250z118z1 <= 0
x250x118x2 - 1z250z118z2 <= 0
x250x221x2 - 1z250z221z2 <= 0
x250x226x2 - 2z250z226z2 <= 0
x250x243x1 - 1z250z243z1 <= 0
x250x246x2 - 1z250z246z2 <= 0
x250x271x2 - 1z250z271z2 <= 0
x250x177x1 - 1z250z177z1 <= 0
x250x74x1 - 1z250z74z1 <= 0
x250x184x1 - 2z250z184z1 <= 0
x250x93x2 - 1z250z93z2 <= 0
x250x75x2 - 2z250z75z2 <= 0
x250x85x2 - 1z250z85z2 <= 0
x250x171x1 - 1z250z171z1 <= 0
x250x21x1 - 1z250z21z1 <= 0
x250x86x2 - 2z250z86z2 <= 0
x250x154x1 - 1z250z154z1 <= 0
x250x154x2 - 1z250z154z2 <= 0
x250x58x1 - 2z250z58z1 <= 0
x223x88x2 - 1z223z88z2 <= 0
x223x177x1 - 1z223z177z1 <= 0
x223x74x1 - 1z223z74z1 <= 0
x223x184x1 - 2z223z184z1 <= 0
x223x93x2 - 1z223z93z2 <= 0
x223x75x2 - 2z223z75z2 <= 0
x223x85x2 - 1z223z85z2 <= 0
x223x171x1 - 1z223z171z1 <= 0
x223x21x1 - 1z223z21z1 <= 0
x223x86x2 - 2z223z86z2 <= 0
x223x154x1 - 1z223z154z1 <= 0
x223x154x2 - 1z223z154z2 <= 0
x223x58x1 - 2z223z58z1 <= 0
x76x93x2 - 1z76z93z2 <= 0
x76x93x3 - 1z76z93z3 <= 0
x76x75x2 - 2z76z75z2 <= 0
x76x85x2 - 1z76z85z2 <= 0
x76x85x3 - 1z76z85z3 <= 0
x76x171x3 - 1z76z171z3 <= 0
x76x21x3 - 1z76z21z3 <= 0
x76x86x2 - 2z76z86z2 <= 0
x76x154x2 - 1z76z154z2 <= 0
x210x93x3 - 1z210z93z3 <= 0
x210x135x3 - 2z210z135z3 <= 0
x210x85x3 - 1z210z85z3 <= 0
x210x171x1 - 1z210z171z1 <= 0
x210x171x3 - 1z210z171z3 <= 0
x210x21x1 - 1z210z21z1 <= 0
x210x21x3 - 1z210z21z3 <= 0
x210x154x1 - 1z210z154z1 <= 0
x210x58x1 - 2z210z58z1 <= 0
x3x171x1 - 1z3z171z1 <= 0
x3x171x3 - 1z3z171z3 <= 0
x3x21x1 - 1z3z21z1 <= 0
x3x21x3 - 1z3z21z3 <= 0
x3x154x1 - 1z3z154z1 <= 0
x3x58x1 - 2z3z58z1 <= 0
x197x88x3 - 1z197z88z3 <= 0
x197x221x3 - 1z197z221z3 <= 0
x197x243x3 - 1z197z243z3 <= 0
x197x246x3 - 1z197z246z3 <= 0
x197x177x3 - 1z197z177z3 <= 0
x197x74x3 - 1z197z74z3 <= 0
x197x93x3 - 1z197z93z3 <= 0
x197x135x3 - 2z197z135z3 <= 0
x197x85x3 - 1z197z85z3 <= 0
x197x171x3 - 1z197z171z3 <= 0
x197x21x3 - 1z197z21z3 <= 0
x173x85x3 - 1z173z85z3 <= 0
x173x171x1 - 1z173z171z1 <= 0
x173x171x3 - 1z173z171z3 <= 0
x173x21x1 - 1z173z21z1 <= 0
x173x21x3 - 1z173z21z3 <= 0
x173x154x1 - 1z173z154z1 <= 0
x173x58x1 - 2z173z58z1 <= 0
x134x93x2 - 1z134z93z2 <= 0
x134x93x3 - 1z134z93z3 <= 0
x134x75x2 - 2z134z75z2 <= 0
x134x85x2 - 1z134z85z2 <= 0
x134x85x3 - 1z134z85z3 <= 0
x134x171x3 - 1z134z171z3 <= 0
x134x21x3 - 1z134z21z3 <= 0
x134x86x2 - 2z134z86z2 <= 0
x134x154x2 - 1z134z154z2 <= 0
x212x59x1 - 2z212z59z1 <= 0
x212x118x1 - 1z212z118z1 <= 0
x212x243x1 - 1z212z243z1 <= 0
x212x268x1 - 2z212z268z1 <= 0
x212x177x1 - 1z212z177z1 <= 0
x212x74x1 - 1z212z74z1 <= 0
x212x184x1 - 2z212z184z1 <= 0
x212x171x1 - 1z212z171z1 <= 0
x212x21x1 - 1z212z21z1 <= 0
x212x154x1 - 1z212z154z1 <= 0
x212x58x1 - 2z212z58z1 <= 0
x37x88x2 - 1z37z88z2 <= 0
x37x118x2 - 1z37z118z2 <= 0
x37x221x2 - 1z37z221z2 <= 0
x37x226x2 - 2z37z226z2 <= 0
x37x246x2 - 1z37z246z2 <= 0
x37x271x2 - 1z37z271z2 <= 0
x37x93x2 - 1z37z93z2 <= 0
x37x75x2 - 2z37z75z2 <= 0
x37x85x2 - 1z37z85z2 <= 0
x37x86x2 - 2z37z86z2 <= 0
x37x154x2 - 1z37z154z2 <= 0
x108x118x1 - 1z108z118z1 <= 0
x108x243x1 - 1z108z243z1 <= 0
x108x177x1 - 1z108z177z1 <= 0
x108x74x1 - 1z108z74z1 <= 0
x108x184x1 - 2z108z184z1 <= 0
x108x171x1 - 1z108z171z1 <= 0
x108x21x1 - 1z108z21z1 <= 0
x108x154x1 - 1z108z154z1 <= 0
x108x58x1 - 2z108z58z1 <= 0
x257x88x2 - 1z257z88z2 <= 0
x257x118x2 - 1z257z118z2 <= 0
x257x221x2 - 1z257z221z2 <= 0
x257x226x2 - 2z257z226z2 <= 0
x257x246x2 - 1z257z246z2 <= 0
x257x271x2 - 1z257z271z2 <= 0
x257x93x2 - 1z257z93z2 <= 0
x257x75x2 - 2z257z75z2 <= 0
x257x85x2 - 1z257z85z2 <= 0
x257x86x2 - 2z257z86z2 <= 0
x257x154x2 - 1z257z154z2 <= 0
x136x88x2 - 1z136z88z2 <= 0
x136x88x3 - 1z136z88z3 <= 0
x136x118x2 - 1z136z118z2 <= 0
x136x221x2 - 1z136z221z2 <= 0
x136x221x3 - 1z136z221z3 <= 0
x136x226x2 - 2z136z226z2 <= 0
x136x243x3 - 1z136z243z3 <= 0
x136x246x2 - 1z136z246z2 <= 0
x136x246x3 - 1z136z246z3 <= 0
x136x177x3 - 1z136z177z3 <= 0
x136x74x3 - 1z136z74z3 <= 0
x136x93x2 - 1z136z93z2 <= 0
x136x93x3 - 1z136z93z3 <= 0
x136x135x3 - 2z136z135z3 <= 0
x136x75x2 - 2z136z75z2 <= 0
x136x85x2 - 1z136z85z2 <= 0
x136x85x3 - 1z136z85z3 <= 0
x136x171x3 - 1z136z171z3 <= 0
x136x21x3 - 1z136z21z3 <= 0
x136x86x2 - 2z136z86z2 <= 0
x136x154x2 - 1z136z154z2 <= 0
x62x88x2 - 1z62z88z2 <= 0
x62x88x3 - 1z62z88z3 <= 0
x62x118x2 - 1z62z118z2 <= 0
x62x208x2 - 1z62z208z2 <= 0
x62x208x3 - 1z62z208z3 <= 0
x62x221x2 - 1z62z221z2 <= 0
x62x221x3 - 1z62z221z3 <= 0
x62x226x2 - 2z62z226z2 <= 0
x62x243x3 - 1z62z243z3 <= 0
x62x246x2 - 1z62z246z2 <= 0
x62x246x3 - 1z62z246z3 <= 0
x62x271x2 - 1z62z271z2 <= 0
x62x271x3 - 1z62z271z3 <= 0
x62x177x3 - 1z62z177z3 <= 0
x62x74x3 - 1z62z74z3 <= 0
x62x93x2 - 1z62z93z2 <= 0
x62x93x3 - 1z62z93z3 <= 0
x62x135x3 - 2z62z135z3 <= 0
x62x75x2 - 2z62z75z2 <= 0
x62x85x2 - 1z62z85z2 <= 0
x62x85x3 - 1z62z85z3 <= 0
x62x171x3 - 1z62z171z3 <= 0
x62x21x3 - 1z62z21z3 <= 0
x62x86x2 - 2z62z86z2 <= 0
x62x154x2 - 1z62z154z2 <= 0
x34x86x2 - 2z34z86z2 <= 0
x34x154x2 - 1z34z154z2 <= 0
x34x0x2 <= 2
x59x171x1 - 1z59z171z1 <= 0
x59x21x1 - 1z59z21z1 <= 0
x59x154x1 - 1z59z154z1 <= 0
x59x58x1 - 2z59z58z1 <= 0
x59x0x1 <= 2
x88x85x2 - 1z88z85z2 <= 0
x88x85x3 - 1z88z85z3 <= 0
x88x171x3 - 1z88z171z3 <= 0
x88x21x3 - 1z88z21z3 <= 0
x88x86x2 - 2z88z86z2 <= 0
x88x154x2 - 1z88z154z2 <= 0
x88x0x2 <= 1
x88x0x3 <= 1
x118x93x2 - 1z118z93z2 <= 0
x118x75x2 - 2z118z75z2 <= 0
x118x85x2 - 1z118z85z2 <= 0
x118x171x1 - 1z118z171z1 <= 0
x118x21x1 - 1z118z21z1 <= 0
x118x86x2 - 2z118z86z2 <= 0
x118x154x1 - 1z118z154z1 <= 0
x118x154x2 - 1z118z154z2 <= 0
x118x58x1 - 2z118z58z1 <= 0
x118x0x1 <= 1
x118x0x2 <= 1
x208x171x3 - 1z208z171z3 <= 0
x208x21x3 - 1z208z21z3 <= 0
x208x86x2 - 2z208z86z2 <= 0
x208x154x2 - 1z208z154z2 <= 0
x208x0x2 <= 1
x208x0x3 <= 1
x221x75x2 - 2z221z75z2 <= 0
x221x85x2 - 1z221z85z2 <= 0
x221x85x3 - 1z221z85z3 <= 0
x221x171x3 - 1z221z171z3 <= 0
x221x21x3 - 1z221z21z3 <= 0
x221x86x2 - 2z221z86z2 <= 0
x221x154x2 - 1z221z154z2 <= 0
x221x0x2 <= 1
x221x0x3 <= 1
x226x75x2 - 2z226z75z2 <= 0
x226x85x2 - 1z226z85z2 <= 0
x226x86x2 - 2z226z86z2 <= 0
x226x154x2 - 1z226z154z2 <= 0
x226x0x2 <= 2
x243x93x3 - 1z243z93z3 <= 0
x243x135x3 - 2z243z135z3 <= 0
x243x85x3 - 1z243z85z3 <= 0
x243x171x1 - 1z243z171z1 <= 0
x243x171x3 - 1z243z171z3 <= 0
x243x21x1 - 1z243z21z1 <= 0
x243x21x3 - 1z243z21z3 <= 0
x243x154x1 - 1z243z154z1 <= 0
x243x58x1 - 2z243z58z1 <= 0
x243x0x1 <= 1
x243x0x3 <= 1
x246x85x2 - 1z246z85z2 <= 0
x246x85x3 - 1z246z85z3 <= 0
x246x171x3 - 1z246z171z3 <= 0
x246x21x3 - 1z246z21z3 <= 0
x246x86x2 - 2z246z86z2 <= 0
x246x154x2 - 1z246z154z2 <= 0
x246x0x2 <= 1
x246x0x3 <= 1
x268x171x1 - 1z268z171z1 <= 0
x268x21x1 - 1z268z21z1 <= 0
x268x154x1 - 1z268z154z1 <= 0
x268x58x1 - 2z268z58z1 <= 0
x268x0x1 <= 2
x271x85x2 - 1z271z85z2 <= 0
x271x85x3 - 1z271z85z3 <= 0
x271x171x3 - 1z271z171z3 <= 0
x271x21x3 - 1z271z21z3 <= 0
x271x86x2 - 2z271z86z2 <= 0
x271x154x2 - 1z271z154z2 <= 0
x271x0x2 <= 1
x271x0x3 <= 1
x177x93x3 - 1z177z93z3 <= 0
x177x135x3 - 2z177z135z3 <= 0
x177x85x3 - 1z177z85z3 <= 0
x177x171x1 - 1z177z171z1 <= 0
x177x171x3 - 1z177z171z3 <= 0
x177x21x1 - 1z177z21z1 <= 0
x177x21x3 - 1z177z21z3 <= 0
x177x154x1 - 1z177z154z1 <= 0
x177x58x1 - 2z177z58z1 <= 0
x177x0x1 <= 1
x177x0x3 <= 1
x74x135x3 - 2z74z135z3 <= 0
x74x85x3 - 1z74z85z3 <= 0
x74x171x1 - 1z74z171z1 <= 0
x74x171x3 - 1z74z171z3 <= 0
x74x21x1 - 1z74z21z1 <= 0
x74x21x3 - 1z74z21z3 <= 0
x74x154x1 - 1z74z154z1 <= 0
x74x58x1 - 2z74z58z1 <= 0
x74x0x1 <= 1
x74x0x3 <= 1
x184x171x1 - 1z184z171z1 <= 0
x184x21x1 - 1z184z21z1 <= 0
x184x154x1 - 1z184z154z1 <= 0
x184x58x1 - 2z184z58z1 <= 0
x184x0x1 <= 2
x93x75x2 - 2z93z75z2 <= 0
x93x85x2 - 1z93z85z2 <= 0
x93x85x3 - 1z93z85z3 <= 0
x93x171x3 - 1z93z171z3 <= 0
x93x21x3 - 1z93z21z3 <= 0
x93x86x2 - 2z93z86z2 <= 0
x93x154x2 - 1z93z154z2 <= 0
x93x0x2 <= 1
x93x0x3 <= 1
x135x85x3 - 1z135z85z3 <= 0
x135x171x3 - 1z135z171z3 <= 0
x135x21x3 - 1z135z21z3 <= 0
x135x0x3 <= 2
x75x86x2 - 2z75z86z2 <= 0
x75x154x2 - 1z75z154z2 <= 0
x75x0x2 <= 2
x85x171x3 - 1z85z171z3 <= 0
x85x21x3 - 1z85z21z3 <= 0
x85x86x2 - 2z85z86z2 <= 0
x85x154x2 - 1z85z154z2 <= 0
x85x0x2 <= 1
x85x0x3 <= 1
x171x21x1 - 1z171z21z1 <= 0
x171x21x3 - 1z171z21z3 <= 0
x171x154x1 - 1z171z154z1 <= 0
x171x58x1 - 2z171z58z1 <= 0
x171x0x1 <= 1
x171x0x3 <= 1
x21x58x1 - 2z21z58z1 <= 0
x21x0x1 <= 1
x21x0x3 <= 1
x86x0x2 <= 2
x154x0x1 <= 1
x154x0x2 <= 1
x58x0x1 <= 2

Bounds
s19 = 5.109309
s250 = 5.197449
s223 = 5.617462
s76 = 5.758942
s210 = 5.835781
s3 = 5.963557
s197 = 5.380000
s173 = 5.826343
s134 = 5.839681
s212 = 4.453300
s37 = 4.798980
s108 = 4.742590
s257 = 4.968060
s136 = 4.864900
s62 = 4.981660
6.000000 <= s34 <= 6.210000
6.000000 <= s59 <= 6.320000
6.000000 <= s88 <= 7.000000
6.000000 <= s118 <= 6.760000
6.000000 <= s208 <= 6.360000
6.000000 <= s221 <= 6.610000
6.000000 <= s226 <= 6.800000
6.000000 <= s243 <= 6.910000
6.000000 <= s246 <= 6.860000
6.000000 <= s268 <= 6.270000
6.000000 <= s271 <= 6.570000
6.010000 <= s177 <= 7.010000
6.070000 <= s74 <= 7.070000
6.070000 <= s184 <= 7.070000
6.110000 <= s93 <= 7.110000
6.160000 <= s135 <= 7.160000
6.190000 <= s75 <= 7.190000
6.240000 <= s85 <= 7.240000
6.370000 <= s171 <= 7.370000
6.620000 <= s21 <= 7.620000
6.730000 <= s86 <= 7.730000
6.770000 <= s154 <= 7.770000
6.820000 <= s58 <= 7.820000

General
x19x118x1 x19x243x1 x19x177x1 x19x74x1 x19x184x1 x19x171x1 x19x21x1 x19x154x1 x19x58x1 
x250x88x2 x250x118x1 x250x118x2 x250x221x2 x250x226x2 x250x243x1 x250x246x2 x250x271x2 x250x177x1 x250x74x1 x250x184x1 x250x93x2 x250x75x2 x250x85x2 x250x171x1 x250x21x1 x250x86x2 x250x154x1 x250x154x2 x250x58x1 
x223x88x2 x223x177x1 x223x74x1 x223x184x1 x223x93x2 x223x75x2 x223x85x2 x223x171x1 x223x21x1 x223x86x2 x223x154x1 x223x154x2 x223x58x1 
x76x93x2 x76x93x3 x76x75x2 x76x85x2 x76x85x3 x76x171x3 x76x21x3 x76x86x2 x76x154x2 
x210x93x3 x210x135x3 x210x85x3 x210x171x1 x210x171x3 x210x21x1 x210x21x3 x210x154x1 x210x58x1 
x3x171x1 x3x171x3 x3x21x1 x3x21x3 x3x154x1 x3x58x1 
x197x88x3 x197x221x3 x197x243x3 x197x246x3 x197x177x3 x197x74x3 x197x93x3 x197x135x3 x197x85x3 x197x171x3 x197x21x3 
x173x85x3 x173x171x1 x173x171x3 x173x21x1 x173x21x3 x173x154x1 x173x58x1 
x134x93x2 x134x93x3 x134x75x2 x134x85x2 x134x85x3 x134x171x3 x134x21x3 x134x86x2 x134x154x2 
x212x59x1 x212x118x1 x212x243x1 x212x268x1 x212x177x1 x212x74x1 x212x184x1 x212x171x1 x212x21x1 x212x154x1 x212x58x1 
x37x88x2 x37x118x2 x37x221x2 x37x226x2 x37x246x2 x37x271x2 x37x93x2 x37x75x2 x37x85x2 x37x86x2 x37x154x2 
x108x118x1 x108x243x1 x108x177x1 x108x74x1 x108x184x1 x108x171x1 x108x21x1 x108x154x1 x108x58x1 
x257x88x2 x257x118x2 x257x221x2 x257x226x2 x257x246x2 x257x271x2 x257x93x2 x257x75x2 x257x85x2 x257x86x2 x257x154x2 
x136x88x2 x136x88x3 x136x118x2 x136x221x2 x136x221x3 x136x226x2 x136x243x3 x136x246x2 x136x246x3 x136x177x3 x136x74x3 x136x93x2 x136x93x3 x136x135x3 x136x75x2 x136x85x2 x136x85x3 x136x171x3 x136x21x3 x136x86x2 x136x154x2 
x62x88x2 x62x88x3 x62x118x2 x62x208x2 x62x208x3 x62x221x2 x62x221x3 x62x226x2 x62x243x3 x62x246x2 x62x246x3 x62x271x2 x62x271x3 x62x177x3 x62x74x3 x62x93x2 x62x93x3 x62x135x3 x62x75x2 x62x85x2 x62x85x3 x62x171x3 x62x21x3 x62x86x2 x62x154x2 
x34x86x2 x34x154x2 x34x0x2 
x59x171x1 x59x21x1 x59x154x1 x59x58x1 x59x0x1 
x88x85x2 x88x85x3 x88x171x3 x88x21x3 x88x86x2 x88x154x2 x88x0x2 x88x0x3 
x118x93x2 x118x75x2 x118x85x2 x118x171x1 x118x21x1 x118x86x2 x118x154x1 x118x154x2 x118x58x1 x118x0x1 x118x0x2 
x208x171x3 x208x21x3 x208x86x2 x208x154x2 x208x0x2 x208x0x3 
x221x75x2 x221x85x2 x221x85x3 x221x171x3 x221x21x3 x221x86x2 x221x154x2 x221x0x2 x221x0x3 
x226x75x2 x226x85x2 x226x86x2 x226x154x2 x226x0x2 
x243x93x3 x243x135x3 x243x85x3 x243x171x1 x243x171x3 x243x21x1 x243x21x3 x243x154x1 x243x58x1 x243x0x1 x243x0x3 
x246x85x2 x246x85x3 x246x171x3 x246x21x3 x246x86x2 x246x154x2 x246x0x2 x246x0x3 
x268x171x1 x268x21x1 x268x154x1 x268x58x1 x268x0x1 
x271x85x2 x271x85x3 x271x171x3 x271x21x3 x271x86x2 x271x154x2 x271x0x2 x271x0x3 
x177x93x3 x177x135x3 x177x85x3 x177x171x1 x177x171x3 x177x21x1 x177x21x3 x177x154x1 x177x58x1 x177x0x1 x177x0x3 
x74x135x3 x74x85x3 x74x171x1 x74x171x3 x74x21x1 x74x21x3 x74x154x1 x74x58x1 x74x0x1 x74x0x3 
x184x171x1 x184x21x1 x184x154x1 x184x58x1 x184x0x1 
x93x75x2 x93x85x2 x93x85x3 x93x171x3 x93x21x3 x93x86x2 x93x154x2 x93x0x2 x93x0x3 
x135x85x3 x135x171x3 x135x21x3 x135x0x3 
x75x86x2 x75x154x2 x75x0x2 
x85x171x3 x85x21x3 x85x86x2 x85x154x2 x85x0x2 x85x0x3 
x171x21x1 x171x21x3 x171x154x1 x171x58x1 x171x0x1 x171x0x3 
x21x58x1 x21x0x1 x21x0x3 
x86x0x2 
x154x0x1 x154x0x2 
x58x0x1 

Binaries
y34 y59 y88 y118 y208 y221 y226 y243 y246 y268 y271 y177 y74 y184 y93 y135 y75 y85 y171 y21 y86 y154 y58 
z19z118z1 z19z243z1 z19z177z1 z19z74z1 z19z184z1 z19z171z1 z19z21z1 z19z154z1 z19z58z1 
z250z88z2 z250z118z1 z250z118z2 z250z221z2 z250z226z2 z250z243z1 z250z246z2 z250z271z2 z250z177z1 z250z74z1 z250z184z1 z250z93z2 z250z75z2 z250z85z2 z250z171z1 z250z21z1 z250z86z2 z250z154z1 z250z154z2 z250z58z1 
z223z88z2 z223z177z1 z223z74z1 z223z184z1 z223z93z2 z223z75z2 z223z85z2 z223z171z1 z223z21z1 z223z86z2 z223z154z1 z223z154z2 z223z58z1 
z76z93z2 z76z93z3 z76z75z2 z76z85z2 z76z85z3 z76z171z3 z76z21z3 z76z86z2 z76z154z2 
z210z93z3 z210z135z3 z210z85z3 z210z171z1 z210z171z3 z210z21z1 z210z21z3 z210z154z1 z210z58z1 
z3z171z1 z3z171z3 z3z21z1 z3z21z3 z3z154z1 z3z58z1 
z197z88z3 z197z221z3 z197z243z3 z197z246z3 z197z177z3 z197z74z3 z197z93z3 z197z135z3 z197z85z3 z197z171z3 z197z21z3 
z173z85z3 z173z171z1 z173z171z3 z173z21z1 z173z21z3 z173z154z1 z173z58z1 
z134z93z2 z134z93z3 z134z75z2 z134z85z2 z134z85z3 z134z171z3 z134z21z3 z134z86z2 z134z154z2 
z212z59z1 z212z118z1 z212z243z1 z212z268z1 z212z177z1 z212z74z1 z212z184z1 z212z171z1 z212z21z1 z212z154z1 z212z58z1 
z37z88z2 z37z118z2 z37z221z2 z37z226z2 z37z246z2 z37z271z2 z37z93z2 z37z75z2 z37z85z2 z37z86z2 z37z154z2 
z108z118z1 z108z243z1 z108z177z1 z108z74z1 z108z184z1 z108z171z1 z108z21z1 z108z154z1 z108z58z1 
z257z88z2 z257z118z2 z257z221z2 z257z226z2 z257z246z2 z257z271z2 z257z93z2 z257z75z2 z257z85z2 z257z86z2 z257z154z2 
z136z88z2 z136z88z3 z136z118z2 z136z221z2 z136z221z3 z136z226z2 z136z243z3 z136z246z2 z136z246z3 z136z177z3 z136z74z3 z136z93z2 z136z93z3 z136z135z3 z136z75z2 z136z85z2 z136z85z3 z136z171z3 z136z21z3 z136z86z2 z136z154z2 
z62z88z2 z62z88z3 z62z118z2 z62z208z2 z62z208z3 z62z221z2 z62z221z3 z62z226z2 z62z243z3 z62z246z2 z62z246z3 z62z271z2 z62z271z3 z62z177z3 z62z74z3 z62z93z2 z62z93z3 z62z135z3 z62z75z2 z62z85z2 z62z85z3 z62z171z3 z62z21z3 z62z86z2 z62z154z2 
z34z86z2 z34z154z2 
z59z171z1 z59z21z1 z59z154z1 z59z58z1 
z88z85z2 z88z85z3 z88z171z3 z88z21z3 z88z86z2 z88z154z2 
z118z93z2 z118z75z2 z118z85z2 z118z171z1 z118z21z1 z118z86z2 z118z154z1 z118z154z2 z118z58z1 
z208z171z3 z208z21z3 z208z86z2 z208z154z2 
z221z75z2 z221z85z2 z221z85z3 z221z171z3 z221z21z3 z221z86z2 z221z154z2 
z226z75z2 z226z85z2 z226z86z2 z226z154z2 
z243z93z3 z243z135z3 z243z85z3 z243z171z1 z243z171z3 z243z21z1 z243z21z3 z243z154z1 z243z58z1 
z246z85z2 z246z85z3 z246z171z3 z246z21z3 z246z86z2 z246z154z2 
z268z171z1 z268z21z1 z268z154z1 z268z58z1 
z271z85z2 z271z85z3 z271z171z3 z271z21z3 z271z86z2 z271z154z2 
z177z93z3 z177z135z3 z177z85z3 z177z171z1 z177z171z3 z177z21z1 z177z21z3 z177z154z1 z177z58z1 
z74z135z3 z74z85z3 z74z171z1 z74z171z3 z74z21z1 z74z21z3 z74z154z1 z74z58z1 
z184z171z1 z184z21z1 z184z154z1 z184z58z1 
z93z75z2 z93z85z2 z93z85z3 z93z171z3 z93z21z3 z93z86z2 z93z154z2 
z135z85z3 z135z171z3 z135z21z3 
z75z86z2 z75z154z2 
z85z171z3 z85z21z3 z85z86z2 z85z154z2 
z171z21z1 z171z21z3 z171z154z1 z171z58z1 
z21z58z1 




End